Mg10 O10
1.0
2.974700 0.000000 0.000000
1.487350 2.576166 0.000000
0.000000 0.000000 24.288326
Mg O
10 10
direct
0.000000 0.000000 -0.000000 Mg
0.666667 0.666667 0.100000 Mg
0.333333 0.333333 0.200000 Mg
0.000000 0.000000 0.300000 Mg
0.666667 0.666667 0.400000 Mg
0.333333 0.333333 0.500000 Mg
0.666667 0.666667 0.600000 Mg
0.000000 0.000000 0.700000 Mg
0.333333 0.333333 0.800000 Mg
0.666667 0.666667 0.900000 Mg
0.333333 0.333333 0.050000 O
0.000000 0.000000 0.150000 O
0.666667 0.666667 0.250000 O
0.333333 0.333333 0.350000 O
0.000000 0.000000 0.450000 O
0.000000 0.000000 0.550000 O
0.333333 0.333333 0.650000 O
0.666667 0.666667 0.750000 O
0.000000 0.000000 0.850000 O
0.333333 0.333333 0.950000 O
