Mg12 O10
1.0
2.974700 0.000000 0.000000
1.487350 2.576166 0.000000
0.000000 0.000000 28.288326
Mg O
12 10
direct
0.000000 0.000000 0.000000 Mg
0.666667 0.666667 0.085860 Mg
0.333333 0.333333 0.171720 Mg
0.000000 0.000000 0.257580 Mg
0.666667 0.666667 0.343440 Mg
0.333333 0.333333 0.429299 Mg
0.333333 0.333333 0.500000 Mg
0.666667 0.666667 0.585860 Mg
0.000000 0.000000 0.671720 Mg
0.333333 0.333333 0.757580 Mg
0.666667 0.666667 0.843440 Mg
0.000000 0.000000 0.929299 Mg
0.333333 0.333333 0.042930 O
0.000000 0.000000 0.128790 O
0.666667 0.666667 0.214650 O
0.333333 0.333333 0.300510 O
0.000000 0.000000 0.386370 O
0.000000 0.000000 0.542930 O
0.333333 0.333333 0.628790 O
0.666667 0.666667 0.714650 O
0.000000 0.000000 0.800510 O
0.333333 0.333333 0.886370 O
