Mg2 O2
1.0
2.974700 0.000000 0.000000
0.000000 7.286498 0.000000
0.000000 2.428833 1.717444
O Mg O
1 2 1
direct
0.000000 0.000000 0.000000 O
0.000000 0.500000 0.000000 Mg
0.500000 0.000000 0.500000 Mg
0.500000 0.500000 0.500000 O
