Mg10 O10
1.0
   2.9747003012548121    0.0000000000000000    0.0000000000000000
   1.4873501506274061    2.5761660295318900    0.0000000000000000
   0.0000000000000000    0.0000000000000000   24.2883262525904371
Mg O
10 10
direct
   0.0000000000000000    0.0000000000000000    0.0000000000000737 Mg
   0.6666666666666701    0.6666666666666701    0.1000000000000078 Mg
   0.3333333333333300    0.3333333333333300    0.2000000000000155 Mg
   0.0000000000000000    0.0000000000000000    0.3000000000000233 Mg
   0.6666666666666701    0.6666666666666701    0.4000000000000311 Mg
   0.3333333333331650    0.3333333333331649    0.5000000000000385 Mg
   0.6666666666670003    0.6666666666670000    0.5999999999996366 Mg
   0.0000000000000000    0.0000000000000000    0.6999999999999407 Mg
   0.3333333333330001    0.3333333333330000    0.8000000000002448 Mg
   0.6666666666670003    0.6666666666670000    0.8999999999998431 Mg
   0.3333333333333300    0.3333333333333300    0.0500000000000039 O
   0.0000000000000000    0.0000000000000000    0.1500000000000117 O
   0.6666666666666701    0.6666666666666701    0.2500000000000194 O
   0.3333333333333300    0.3333333333333300    0.3500000000000272 O
   0.0000000000000000    0.0000000000000000    0.4500000000000349 O
   0.0000000000000000    0.0000000000000000    0.5500000000001902 O
   0.3333333333330001    0.3333333333330000    0.6499999999997886 O
   0.6666666666670003    0.6666666666670000    0.7500000000000927 O
   0.0000000000000000    0.0000000000000000    0.8499999999996911 O
   0.3333333333330001    0.3333333333330000    0.9499999999999953 O
