Mg10 O10
1.0
2.974700 -0.000000 0.000000
1.487350 2.576166 0.000000
-14.129826 -8.157859 23.073910
Mg O
10 10
direct
0.000000 0.000000 0.000000 Mg
0.000000 0.000000 0.105263 Mg
0.000000 0.000000 0.210526 Mg
0.000000 1.000000 0.315789 Mg
0.000000 0.000000 0.421053 Mg
0.666667 0.666667 0.578947 Mg
0.333333 0.333333 0.684211 Mg
0.000000 0.000000 0.789474 Mg
0.666667 0.666667 0.894737 Mg
0.333333 0.333333 1.000000 Mg
0.500000 0.500000 0.052632 O
0.500000 0.500000 0.157895 O
0.500000 0.500000 0.263158 O
0.500000 0.500000 0.368421 O
0.500000 0.500000 0.473684 O
0.833333 0.833333 0.526316 O
0.500000 0.500000 0.631579 O
0.166667 0.166667 0.736842 O
0.833333 0.833333 0.842105 O
0.500000 0.500000 0.947368 O
