Fe3O4 Bulk                                
    1.000000000000000     
        5.9355249405         0.0000000000         0.0000000000
        2.9677624702         5.1403153833         0.0000000000
        2.9677624702         1.7134384611         4.8463358199
   Fe   O 
   6   8
Cartesian
1.483881235         0.856719231         0.605791977
10.387168646         5.997034614         4.240543842
5.935524940         3.426876922         2.423167910
4.451643705         2.570157692         0.000000000
4.451643705         0.856719231         2.423167910
2.967762470         3.426876922         2.423167910
3.025930715         1.747021913         1.235331041
8.845119520         5.106732136         3.611004923
4.451643617         2.570157641         3.563510461
7.419406441         4.283596306         1.282825214
4.451643617         4.216429096         1.235331041
7.419406441         2.637324646         3.611004923
5.877356519         1.747021913         1.235331041
5.993693362         5.106732136         3.611004923
