Methanimidamide lead iodide (1/1/3) - be
   1.00000000000000     
     9.0015603653746066   -0.0010489287433125   -0.0000333469033116
    -0.0010488683363856    9.0018576805489072    0.0002548949927323
    -0.0000500896745795    0.0003654488787912   12.5142826770248785
   C    N    H    Pb   I 
     4     8    20     4    12
Direct
  0.4999964309787560 -0.0000055280051204  0.7968179122653731
  0.4999937862233128  0.9999916800492947  0.2031832900320976
  0.9998576440636362  0.4998610909242342  0.2968220440586939
  0.9999771540010083  0.4999682275453728  0.7031807889578711
  0.4080737498985972  0.9080721106386813  0.7499232237142238
  0.5920257969015058  0.0920339538332060  0.7501561738755744
  0.4080644494051262  0.9080572754013225  0.2500650828226298
  0.5920290282214213  0.0920137296161962  0.2498535262653691
  0.9081820987263622  0.5920895318200593  0.2500309587290471
  0.0920819379580049  0.4081760268638892  0.2500450354974897
  0.9083331449268754  0.5922372838415259  0.7499652619561870
  0.0922447999174483  0.4083360806641420  0.7499644033852977
  0.6041758282932546  0.1041746680554056  0.6689339030177339
  0.6575148770275649  0.1575408080781737  0.7979517598891748
  0.3961290582567539  0.8961188350865118  0.6686824551933649
  0.3424570251356434  0.8424677071466077  0.7975714492705569
  0.4998511721156737  0.9998840748749739  0.8845490190284706
  0.6041648792968831  0.1041482055948897  0.3310783330192689
  0.6575412160959677  0.1575021548098031  0.2020488057739860
  0.3961064461213541  0.8960983122513611  0.3313005205604586
  0.3424680287888618  0.8424443624403930  0.2024248146756928
  0.4998973208949519  0.9998665884651965  0.1154497794373726
  0.1046245880768168  0.3966278198721021  0.1688124169653567
  0.1572693851883405  0.3422887631364399  0.2977667775830926
  0.8966401433426511  0.6046251374673796  0.1687982848860021
  0.8422957025129229  0.6572835437465149  0.2977433009551794
  0.9992602374895591  0.4992720836010482  0.3845490019540795
  0.1048057696050317  0.3968188369112791  0.8311937715871798
  0.1573549191518494  0.3423672810585733  0.7022498307520763
  0.8968247416176406  0.6047890046953814  0.8311933256393006
  0.8423576379612114  0.6573446910654444  0.7022484826399236
  0.9992888310257710  0.4992909163168643  0.6154515937684869
  0.0011462782071672  0.0014337210774829  1.0000054911123244
  0.9988872960048127  0.9985926960857348  0.4999940011608308
  0.5014170744753937  0.5011954350363990  1.0000059250939308
  0.4985963604180054  0.4988933072899490  0.4999946185257887
  0.0003864293189263  0.9997852777368381  0.2500027849503499
  0.9997776707684489  0.0003962266090646  0.7500018743708291
  0.4997885413822787  0.5003843814244184  0.2500024895504847
  0.5003810544656391  0.4997938802719349  0.7500021845436690
  0.7462540208887782  0.2462616648985370  0.0000616028875291
  0.7421066298562827  0.2421068574185709  0.4999770512573294
  0.2542295874546067  0.7542369799813183  0.9997848041824196
  0.2569783099821949  0.7569819542779612  0.5001490674293425
  0.7584916838134158  0.7435434244552718  1.0000031298197523
  0.7532322140303046  0.7449877590064329  0.4999885313234287
  0.2435429169233548  0.2584925195938477  0.0000191777268435
  0.2449984020922318  0.2532237213591887  0.5000009492574273
 
  0.00000000E+00  0.00000000E+00  0.00000000E+00
  0.00000000E+00  0.00000000E+00  0.00000000E+00
  0.00000000E+00  0.00000000E+00  0.00000000E+00
  0.00000000E+00  0.00000000E+00  0.00000000E+00
  0.00000000E+00  0.00000000E+00  0.00000000E+00
  0.00000000E+00  0.00000000E+00  0.00000000E+00
  0.00000000E+00  0.00000000E+00  0.00000000E+00
  0.00000000E+00  0.00000000E+00  0.00000000E+00
  0.00000000E+00  0.00000000E+00  0.00000000E+00
  0.00000000E+00  0.00000000E+00  0.00000000E+00
  0.00000000E+00  0.00000000E+00  0.00000000E+00
  0.00000000E+00  0.00000000E+00  0.00000000E+00
  0.00000000E+00  0.00000000E+00  0.00000000E+00
  0.00000000E+00  0.00000000E+00  0.00000000E+00
  0.00000000E+00  0.00000000E+00  0.00000000E+00
  0.00000000E+00  0.00000000E+00  0.00000000E+00
  0.00000000E+00  0.00000000E+00  0.00000000E+00
  0.00000000E+00  0.00000000E+00  0.00000000E+00
  0.00000000E+00  0.00000000E+00  0.00000000E+00
  0.00000000E+00  0.00000000E+00  0.00000000E+00
  0.00000000E+00  0.00000000E+00  0.00000000E+00
  0.00000000E+00  0.00000000E+00  0.00000000E+00
  0.00000000E+00  0.00000000E+00  0.00000000E+00
  0.00000000E+00  0.00000000E+00  0.00000000E+00
  0.00000000E+00  0.00000000E+00  0.00000000E+00
  0.00000000E+00  0.00000000E+00  0.00000000E+00
  0.00000000E+00  0.00000000E+00  0.00000000E+00
  0.00000000E+00  0.00000000E+00  0.00000000E+00
  0.00000000E+00  0.00000000E+00  0.00000000E+00
  0.00000000E+00  0.00000000E+00  0.00000000E+00
  0.00000000E+00  0.00000000E+00  0.00000000E+00
  0.00000000E+00  0.00000000E+00  0.00000000E+00
  0.00000000E+00  0.00000000E+00  0.00000000E+00
  0.00000000E+00  0.00000000E+00  0.00000000E+00
  0.00000000E+00  0.00000000E+00  0.00000000E+00
  0.00000000E+00  0.00000000E+00  0.00000000E+00
  0.00000000E+00  0.00000000E+00  0.00000000E+00
  0.00000000E+00  0.00000000E+00  0.00000000E+00
  0.00000000E+00  0.00000000E+00  0.00000000E+00
  0.00000000E+00  0.00000000E+00  0.00000000E+00
  0.00000000E+00  0.00000000E+00  0.00000000E+00
  0.00000000E+00  0.00000000E+00  0.00000000E+00
  0.00000000E+00  0.00000000E+00  0.00000000E+00
  0.00000000E+00  0.00000000E+00  0.00000000E+00
  0.00000000E+00  0.00000000E+00  0.00000000E+00
  0.00000000E+00  0.00000000E+00  0.00000000E+00
  0.00000000E+00  0.00000000E+00  0.00000000E+00
  0.00000000E+00  0.00000000E+00  0.00000000E+00
