Mg24 O24
1.0
4.206862 0.000000 0.000000
-0.000000 6.651632 0.000000
-0.000000 0.000000 18.633591
Mg O
24 24
direct
1.000000 0.683333 0.053667 Mg
0.500000 0.383333 0.089364 Mg
1.000000 0.083333 0.125061 Mg
1.500000 0.783333 0.160758 Mg
1.000000 0.483333 0.196455 Mg
1.500000 0.183333 0.232152 Mg
1.000000 0.883333 0.267848 Mg
0.500000 0.583333 0.303545 Mg
1.000000 0.283333 0.339242 Mg
0.500000 -0.016667 0.374939 Mg
1.000000 0.683333 0.410636 Mg
0.500000 0.383333 0.446333 Mg
0.500000 0.683333 -0.053667 Mg
-0.000000 0.383333 -0.089364 Mg
0.500000 0.083333 -0.125061 Mg
1.000000 0.783333 -0.160758 Mg
0.500000 0.483333 -0.196455 Mg
1.000000 0.183333 -0.232152 Mg
0.500000 0.883333 -0.267848 Mg
-0.000000 0.583333 -0.303545 Mg
0.500000 0.283333 -0.339242 Mg
-0.000000 -0.016667 -0.374939 Mg
0.500000 0.683333 -0.410636 Mg
-0.000000 0.383333 -0.446333 Mg
1.500000 0.683333 0.053667 O
1.000000 0.383333 0.089364 O
1.500000 0.083333 0.125061 O
1.000000 0.783333 0.160758 O
0.500000 0.483333 0.196455 O
1.000000 0.183333 0.232152 O
1.500000 0.883333 0.267848 O
1.000000 0.583333 0.303545 O
0.500000 0.283333 0.339242 O
1.000000 -0.016667 0.374939 O
0.500000 0.683333 0.410636 O
1.000000 0.383333 0.446333 O
1.000000 0.683333 -0.053667 O
0.500000 0.383333 -0.089364 O
1.000000 0.083333 -0.125061 O
0.500000 0.783333 -0.160758 O
-0.000000 0.483333 -0.196455 O
0.500000 0.183333 -0.232152 O
1.000000 0.883333 -0.267848 O
0.500000 0.583333 -0.303545 O
-0.000000 0.283333 -0.339242 O
0.500000 -0.016667 -0.374939 O
-0.000000 0.683333 -0.410636 O
0.500000 0.383333 -0.446333 O
