Mg12 O12
1.0
4.206862 0.000000 0.000000
-0.000000 6.651632 0.000000
-0.000000 0.000000 12.316795
Mg O
12 12
direct
0.500000 0.683333 -0.000000 Mg
-0.000000 0.383333 0.054005 Mg
0.500000 0.083333 0.108009 Mg
1.000000 0.783333 0.162014 Mg
0.500000 0.483333 0.216018 Mg
1.000000 0.183333 0.270023 Mg
0.500000 0.883333 0.324027 Mg
0.000000 0.583333 0.378032 Mg
0.500000 0.283333 0.432037 Mg
0.000000 -0.016667 0.486041 Mg
0.500000 0.683333 0.540046 Mg
0.000000 0.383333 0.594050 Mg
1.000000 0.683333 -0.000000 O
0.500000 0.383333 0.054005 O
1.000000 0.083333 0.108009 O
0.500000 0.783333 0.162014 O
0.000000 0.483333 0.216018 O
0.500000 0.183333 0.270023 O
1.000000 0.883333 0.324027 O
0.500000 0.583333 0.378032 O
0.000000 0.283333 0.432037 O
0.500000 -0.016667 0.486041 O
0.000000 0.683333 0.540046 O
0.500000 0.383333 0.594050 O
