Cu6 As2 S8                              
   1.00000000000000     
     6.1407767183247861    0.0000000000000000    0.0000000000000000
     0.0000000000000000    6.4317686592502952    0.0000000000000000
     0.0000000000000000    0.0000000000000000    7.3976768917847435
   Cu   As   S 
     6     2     8
Direct
  0.0002439084918589  0.1537745245068125  0.5000000000000000
  0.5002439084918586  0.8462254754931873 -0.0000000000000000
  0.4925268841777718  0.3256602229013720  0.7479420336597187
  0.4925268841777718  0.3256602229013720  0.2520579663402814
  0.9925268841777718  0.6743397770986280  0.7520579663402813
  0.9925268841777718  0.6743397770986280  0.2479420336597187
  0.5006743875215028  0.8272680784269719  0.5000000000000000
  0.0006743875215031  0.1727319215730280 -0.0000000000000000
  0.1423362500100430  0.8227528936759958  0.5000000000000000
  0.6423362500100430  0.1772471063240045 -0.0000000000000000
  0.6244859596433336  0.1472948151718959  0.5000000000000000
  0.1244859596433336  0.8527051848281040 -0.0000000000000000
  0.1195028629888649  0.3353177278048990  0.7567055712165339
  0.1195028629888649  0.3353177278048990  0.2432944287834657
  0.6195028629888649  0.6646822721951011  0.7432944287834661
  0.6195028629888649  0.6646822721951011  0.2567055712165344
 
  0.00000000E+00  0.00000000E+00  0.00000000E+00
  0.00000000E+00  0.00000000E+00  0.00000000E+00
  0.00000000E+00  0.00000000E+00  0.00000000E+00
  0.00000000E+00  0.00000000E+00  0.00000000E+00
  0.00000000E+00  0.00000000E+00  0.00000000E+00
  0.00000000E+00  0.00000000E+00  0.00000000E+00
  0.00000000E+00  0.00000000E+00  0.00000000E+00
  0.00000000E+00  0.00000000E+00  0.00000000E+00
  0.00000000E+00  0.00000000E+00  0.00000000E+00
  0.00000000E+00  0.00000000E+00  0.00000000E+00
  0.00000000E+00  0.00000000E+00  0.00000000E+00
  0.00000000E+00  0.00000000E+00  0.00000000E+00
  0.00000000E+00  0.00000000E+00  0.00000000E+00
  0.00000000E+00  0.00000000E+00  0.00000000E+00
  0.00000000E+00  0.00000000E+00  0.00000000E+00
  0.00000000E+00  0.00000000E+00  0.00000000E+00
