Cu16 Sb16 Pb16 S48
1.0
7.851884 -0.000000 0.000000
-0.000000 12.036551 -0.000000
0.000000 0.000000 28.795587
Cu Sb Pb S
16 16 16 48
direct
0.756415 0.421106 0.071979 Cu
0.243585 0.421106 0.071979 Cu
0.256415 -0.102107 0.082420 Cu
0.743585 -0.102107 0.082420 Cu
0.243585 -0.042328 0.280420 Cu
0.756415 -0.042328 0.280420 Cu
0.256415 -0.565542 0.290861 Cu
0.743585 -0.565542 0.290861 Cu
0.243585 -0.505763 0.488860 Cu
0.756415 -0.505763 0.488860 Cu
0.256415 -1.028976 0.499301 Cu
0.743585 -1.028976 0.499301 Cu
0.243585 -0.969197 0.697300 Cu
0.756415 -0.969197 0.697300 Cu
0.256415 -1.492411 0.707741 Cu
0.743585 -1.492411 0.707741 Cu
-0.000000 0.668372 0.076861 Sb
-0.000000 0.190258 0.116671 Sb
0.500000 -0.072377 0.185143 Sb
0.500000 0.524207 0.191356 Sb
-0.000000 0.204937 0.285301 Sb
-0.000000 -0.273177 0.325111 Sb
0.500000 -0.535812 0.393584 Sb
0.500000 0.060773 0.399796 Sb
-0.000000 -0.258497 0.493742 Sb
-0.000000 -0.736611 0.533552 Sb
0.500000 -0.999246 0.602024 Sb
0.500000 -0.402662 0.608237 Sb
-0.000000 -0.721932 0.702182 Sb
-0.000000 -1.200046 0.741992 Sb
0.500000 -1.462681 0.810464 Sb
0.500000 -0.866096 0.816677 Sb
0.500000 0.679267 0.063423 Pb
0.500000 0.215587 0.128619 Pb
-0.000000 -0.103642 0.190668 Pb
-0.000000 -0.445434 0.201041 Pb
0.500000 0.215833 0.271864 Pb
0.500000 -0.247848 0.337059 Pb
-0.000000 -0.567076 0.399109 Pb
-0.000000 -0.908868 0.409482 Pb
0.500000 -0.247602 0.480304 Pb
0.500000 -0.711282 0.545499 Pb
-0.000000 -1.030511 0.607549 Pb
-0.000000 -1.372303 0.617922 Pb
0.500000 -0.711036 0.688744 Pb
0.500000 -1.174717 0.753940 Pb
-0.000000 -1.493946 0.815989 Pb
-0.000000 -1.835737 0.826362 Pb
0.731781 0.516850 0.000000 S
0.268219 0.516850 0.000000 S
0.264068 0.861847 0.003132 S
0.735932 0.861847 0.003132 S
0.235932 0.229294 0.062751 S
0.764068 0.229294 0.062751 S
-0.000000 -0.011117 0.100079 S
0.500000 -0.011872 0.104403 S
-0.000000 0.480156 0.107989 S
0.500000 0.469892 0.108620 S
0.768219 -0.266844 0.127598 S
0.231781 -0.266844 0.127598 S
0.268219 0.053415 0.208440 S
0.731781 0.053415 0.208440 S
0.264068 0.398413 0.211573 S
0.735932 0.398413 0.211573 S
0.235932 -0.234140 0.271192 S
0.764068 -0.234140 0.271192 S
-0.000000 -0.474552 0.308519 S
0.500000 -0.475306 0.312844 S
-0.000000 0.016721 0.316430 S
0.500000 0.006457 0.317060 S
0.231781 -0.730279 0.336038 S
0.768219 -0.730279 0.336038 S
0.268219 -0.410019 0.416881 S
0.731781 -0.410019 0.416881 S
0.264068 -0.065022 0.420013 S
0.735932 -0.065022 0.420013 S
0.235932 -0.697575 0.479632 S
0.764068 -0.697575 0.479632 S
-0.000000 -0.937986 0.516959 S
0.500000 -0.938741 0.521284 S
-0.000000 -0.446713 0.524870 S
0.500000 -0.456977 0.525501 S
0.231781 -1.193713 0.544478 S
0.768219 -1.193713 0.544478 S
0.268219 -0.873454 0.625321 S
0.731781 -0.873454 0.625321 S
0.264068 -0.528456 0.628453 S
0.735932 -0.528456 0.628453 S
0.235932 -1.161009 0.688072 S
0.764068 -1.161009 0.688072 S
-0.000000 -1.401421 0.725399 S
0.500000 -1.402175 0.729724 S
-0.000000 -0.910148 0.733310 S
0.500000 -0.920412 0.733941 S
0.231781 -1.657148 0.752919 S
0.768219 -1.657148 0.752919 S
