Cu16 Sb16 Pb16 S48
1.0
7.851884 -0.000000 0.000000
-0.000000 12.036551 -0.000000
0.000000 0.000000 28.849546
Cu Sb Pb S
16 16 16 48
direct
0.243585 0.383676 0.089584 Cu
0.756415 0.383676 0.089584 Cu
0.743585 -0.139537 0.100005 Cu
0.256415 -0.139537 0.100005 Cu
0.243585 -0.079758 0.297634 Cu
0.756415 -0.079758 0.297634 Cu
0.256415 -0.602972 0.308055 Cu
0.743585 -0.602972 0.308055 Cu
0.243585 -0.543193 0.505684 Cu
0.756415 -0.543193 0.505684 Cu
0.256415 -1.066406 0.516106 Cu
0.743585 -1.066406 0.516106 Cu
0.243585 -1.006627 0.713735 Cu
0.756415 -1.006627 0.713735 Cu
0.256415 -1.529841 0.724156 Cu
0.743585 -1.529841 0.724156 Cu
0.500000 0.950212 0.000686 Sb
-0.000000 0.630942 0.094456 Sb
-0.000000 0.152828 0.134191 Sb
0.500000 -0.109807 0.202536 Sb
0.500000 0.486777 0.208737 Sb
-0.000000 0.167507 0.302506 Sb
-0.000000 -0.310607 0.342242 Sb
0.500000 -0.573242 0.410586 Sb
0.500000 0.023343 0.416787 Sb
-0.000000 -0.295927 0.510557 Sb
-0.000000 -0.774041 0.550292 Sb
0.500000 -1.036676 0.618637 Sb
0.500000 -0.440092 0.624838 Sb
-0.000000 -0.759362 0.718607 Sb
-0.000000 -1.237476 0.758343 Sb
0.500000 -1.500111 0.826687 Sb
0.000000 0.322363 0.000000 Pb
-0.000000 -0.019429 0.010354 Pb
0.500000 0.641838 0.081043 Pb
0.500000 0.178157 0.146117 Pb
-0.000000 -0.141072 0.208050 Pb
-0.000000 -0.482864 0.218404 Pb
0.500000 0.178403 0.289094 Pb
0.500000 -0.285278 0.354167 Pb
-0.000000 -0.604506 0.416101 Pb
-0.000000 -0.946298 0.426454 Pb
0.500000 -0.285031 0.497144 Pb
0.500000 -0.748712 0.562218 Pb
-0.000000 -1.067941 0.624151 Pb
-0.000000 -1.409733 0.634505 Pb
0.500000 -0.748466 0.705195 Pb
0.500000 -1.212147 0.770268 Pb
0.731781 0.479420 0.017739 S
0.268219 0.479420 0.017739 S
0.264068 0.824418 0.020865 S
0.735932 0.824418 0.020865 S
0.235932 0.191864 0.080373 S
0.764068 0.191864 0.080373 S
-0.000000 -0.048547 0.117630 S
0.500000 -0.049302 0.121947 S
-0.000000 0.442726 0.125526 S
0.500000 0.432462 0.126156 S
0.231781 -0.304274 0.145098 S
0.768219 -0.304274 0.145098 S
0.268219 0.015985 0.225789 S
0.731781 0.015985 0.225789 S
0.264068 0.360983 0.228916 S
0.735932 0.360983 0.228916 S
0.235932 -0.271570 0.288423 S
0.764068 -0.271570 0.288423 S
-0.000000 -0.511981 0.325680 S
0.500000 -0.512736 0.329997 S
-0.000000 -0.020709 0.333576 S
0.500000 -0.030972 0.334206 S
0.231781 -0.767709 0.353148 S
0.768219 -0.767709 0.353148 S
0.268219 -0.447449 0.433840 S
0.731781 -0.447449 0.433840 S
0.264068 -0.102451 0.436966 S
0.735932 -0.102451 0.436966 S
0.235932 -0.735005 0.496473 S
0.764068 -0.735005 0.496473 S
-0.000000 -0.975416 0.533731 S
0.500000 -0.976171 0.538048 S
-0.000000 -0.484143 0.541627 S
0.500000 -0.494407 0.542257 S
0.231781 -1.231143 0.561199 S
0.768219 -1.231143 0.561199 S
0.268219 -0.910884 0.641890 S
0.731781 -0.910884 0.641890 S
0.264068 -0.565886 0.645016 S
0.735932 -0.565886 0.645016 S
0.235932 -1.198439 0.704524 S
0.764068 -1.198439 0.704524 S
-0.000000 -1.438850 0.741781 S
0.500000 -1.439605 0.746098 S
-0.000000 -0.947578 0.749677 S
0.500000 -0.957841 0.750307 S
0.231781 -1.694578 0.769249 S
0.768219 -1.694578 0.769249 S
