Cu16 Sb16 Pb16 S48
1.0
7.851884 -0.000000 0.000000
-0.000000 12.036551 -0.000000
0.000000 0.000000 27.291881
Cu Sb Pb S
16 16 16 48
direct
0.756415 0.499090 0.009737 Cu
0.243585 0.499090 0.009737 Cu
0.256415 -0.024123 0.020753 Cu
0.743585 -0.024123 0.020753 Cu
0.243585 0.035656 0.229661 Cu
0.756415 0.035656 0.229661 Cu
0.256415 -0.487558 0.240677 Cu
0.743585 -0.487558 0.240677 Cu
0.243585 -0.427779 0.449586 Cu
0.756415 -0.427779 0.449586 Cu
0.256415 -0.950992 0.460602 Cu
0.743585 -0.950992 0.460602 Cu
0.243585 -0.891213 0.669511 Cu
0.756415 -0.891213 0.669511 Cu
0.256415 -1.414427 0.680527 Cu
0.743585 -1.414427 0.680527 Cu
-0.000000 0.746356 0.014887 Sb
-0.000000 0.268242 0.056890 Sb
0.500000 0.005607 0.129136 Sb
0.500000 0.602191 0.135690 Sb
-0.000000 0.282921 0.234812 Sb
-0.000000 -0.195193 0.276815 Sb
0.500000 -0.457828 0.349060 Sb
0.500000 0.138757 0.355615 Sb
-0.000000 -0.180513 0.454737 Sb
-0.000000 -0.658627 0.496740 Sb
0.500000 -0.921262 0.568985 Sb
0.500000 -0.324678 0.575540 Sb
-0.000000 -0.643948 0.674662 Sb
-0.000000 -1.122062 0.716665 Sb
0.500000 -1.384697 0.788910 Sb
0.500000 -0.788112 0.795465 Sb
0.500000 0.757251 0.000709 Pb
0.500000 0.293571 0.069497 Pb
-0.000000 -0.025658 0.134965 Pb
-0.000000 -0.367450 0.145910 Pb
0.500000 0.293817 0.220634 Pb
0.500000 -0.169864 0.289421 Pb
-0.000000 -0.489093 0.354890 Pb
-0.000000 -0.830884 0.365834 Pb
0.500000 -0.169618 0.440559 Pb
0.500000 -0.633298 0.509346 Pb
-0.000000 -0.952527 0.574815 Pb
-0.000000 -1.294319 0.585759 Pb
0.500000 -0.633052 0.660483 Pb
0.500000 -1.096733 0.729271 Pb
-0.000000 -1.415962 0.794739 Pb
-0.000000 -1.757753 0.805684 Pb
0.235932 0.307278 0.000000 S
0.764068 0.307278 0.000000 S
-0.000000 0.066867 0.039384 S
0.500000 0.066112 0.043947 S
-0.000000 0.558140 0.047730 S
0.500000 0.547876 0.048396 S
0.231781 -0.188860 0.068419 S
0.768219 -0.188860 0.068419 S
0.268219 0.131399 0.153716 S
0.731781 0.131399 0.153716 S
0.264068 0.476397 0.157021 S
0.735932 0.476397 0.157021 S
0.235932 -0.156156 0.219925 S
0.764068 -0.156156 0.219925 S
-0.000000 -0.396568 0.259309 S
0.500000 -0.397322 0.263872 S
-0.000000 0.094705 0.267655 S
0.500000 0.084441 0.268321 S
0.231781 -0.652295 0.288344 S
0.768219 -0.652295 0.288344 S
0.268219 -0.332035 0.373641 S
0.731781 -0.332035 0.373641 S
0.264068 0.012962 0.376946 S
0.735932 0.012962 0.376946 S
0.235932 -0.619591 0.439850 S
0.764068 -0.619591 0.439850 S
-0.000000 -0.860002 0.479233 S
0.500000 -0.860757 0.483797 S
-0.000000 -0.368729 0.487580 S
0.500000 -0.378993 0.488246 S
0.231781 -1.115729 0.508269 S
0.768219 -1.115729 0.508269 S
0.268219 -0.795470 0.593566 S
0.731781 -0.795470 0.593566 S
0.264068 -0.450472 0.596871 S
0.735932 -0.450472 0.596871 S
0.235932 -1.083025 0.659774 S
0.764068 -1.083025 0.659774 S
-0.000000 -1.323437 0.699158 S
0.500000 -1.324191 0.703721 S
-0.000000 -0.832164 0.707505 S
0.500000 -0.842428 0.708170 S
0.231781 -1.579164 0.728194 S
0.768219 -1.579164 0.728194 S
0.268219 -1.258904 0.813490 S
0.731781 -1.258904 0.813490 S
0.264068 -0.913907 0.816795 S
0.735932 -0.913907 0.816795 S
