Cu32 Sb32 Pb32 S96
1.0
7.851884 -0.000000 0.000000
-0.000000 12.036551 -0.000000
0.000000 0.000000 48.583761
Cu Sb Pb S
32 32 32 96
direct
0.756415 0.499090 0.026053 Cu
0.243585 0.499090 0.026053 Cu
0.256415 -0.024123 0.032241 Cu
0.743585 -0.024123 0.032241 Cu
0.243585 0.035656 0.149595 Cu
0.756415 0.035656 0.149595 Cu
0.256415 -0.487558 0.155783 Cu
0.743585 -0.487558 0.155783 Cu
0.243585 -0.427779 0.273138 Cu
0.756415 -0.427779 0.273138 Cu
0.256415 -0.950992 0.279326 Cu
0.743585 -0.950992 0.279326 Cu
0.243585 -0.891213 0.396680 Cu
0.756415 -0.891213 0.396680 Cu
0.256415 -1.414427 0.402868 Cu
0.743585 -1.414427 0.402868 Cu
0.756415 -0.499090 0.526053 Cu
0.243585 -0.499090 0.526053 Cu
0.256415 0.024123 0.532241 Cu
0.743585 0.024123 0.532241 Cu
0.243585 -0.035656 0.649595 Cu
0.756415 -0.035656 0.649595 Cu
0.256415 0.487558 0.655783 Cu
0.743585 0.487558 0.655783 Cu
0.243585 0.427779 0.773138 Cu
0.756415 0.427779 0.773138 Cu
0.256415 0.950992 0.779326 Cu
0.743585 0.950992 0.779326 Cu
0.243585 0.891213 0.896680 Cu
0.756415 0.891213 0.896680 Cu
0.256415 1.414427 0.902868 Cu
0.743585 1.414427 0.902868 Cu
-0.000000 0.746356 0.028946 Sb
-0.000000 0.268242 0.052541 Sb
0.500000 0.005607 0.093125 Sb
0.500000 0.602191 0.096807 Sb
-0.000000 0.282921 0.152488 Sb
-0.000000 -0.195193 0.176084 Sb
0.500000 -0.457828 0.216667 Sb
0.500000 0.138757 0.220350 Sb
-0.000000 -0.180513 0.276031 Sb
-0.000000 -0.658627 0.299626 Sb
0.500000 -0.921262 0.340210 Sb
0.500000 -0.324678 0.343892 Sb
-0.000000 -0.643948 0.399573 Sb
-0.000000 -1.122062 0.423169 Sb
0.500000 -1.384697 0.463752 Sb
0.500000 -0.788112 0.467435 Sb
-0.000000 -0.746356 0.528946 Sb
-0.000000 -0.268242 0.552541 Sb
0.500000 -0.005607 0.593125 Sb
0.500000 -0.602191 0.596807 Sb
-0.000000 -0.282921 0.652488 Sb
-0.000000 0.195193 0.676084 Sb
0.500000 0.457828 0.716667 Sb
0.500000 -0.138757 0.720350 Sb
-0.000000 0.180513 0.776031 Sb
-0.000000 0.658627 0.799626 Sb
0.500000 0.921262 0.840210 Sb
0.500000 0.324678 0.843892 Sb
-0.000000 0.643948 0.899573 Sb
-0.000000 1.122062 0.923169 Sb
0.500000 1.384697 0.963752 Sb
0.500000 0.788112 0.967435 Sb
0.500000 0.757251 0.020981 Pb
0.500000 0.293571 0.059623 Pb
-0.000000 -0.025658 0.096399 Pb
-0.000000 -0.367450 0.102548 Pb
0.500000 0.293817 0.144524 Pb
0.500000 -0.169864 0.183165 Pb
-0.000000 -0.489093 0.219942 Pb
-0.000000 -0.830884 0.226090 Pb
0.500000 -0.169618 0.268066 Pb
0.500000 -0.633298 0.306708 Pb
-0.000000 -0.952527 0.343485 Pb
-0.000000 -1.294319 0.349633 Pb
0.500000 -0.633052 0.391609 Pb
0.500000 -1.096733 0.430250 Pb
-0.000000 -1.415962 0.467027 Pb
-0.000000 -1.757753 0.473175 Pb
0.500000 -0.757251 0.520981 Pb
0.500000 -0.293571 0.559623 Pb
-0.000000 0.025658 0.596399 Pb
-0.000000 0.367450 0.602548 Pb
0.500000 -0.293817 0.644524 Pb
0.500000 0.169864 0.683165 Pb
-0.000000 0.489093 0.719942 Pb
-0.000000 0.830884 0.726090 Pb
0.500000 0.169618 0.768066 Pb
0.500000 0.633298 0.806708 Pb
-0.000000 0.952527 0.843485 Pb
-0.000000 1.294319 0.849633 Pb
0.500000 0.633052 0.891609 Pb
0.500000 1.096733 0.930250 Pb
-0.000000 1.415962 0.967027 Pb
-0.000000 1.757753 0.973175 Pb
0.235932 0.307278 0.020583 S
0.764068 0.307278 0.020583 S
-0.000000 0.066867 0.042707 S
0.500000 0.066112 0.045270 S
-0.000000 0.558140 0.047396 S
0.500000 0.547876 0.047769 S
0.231781 -0.188860 0.059018 S
0.768219 -0.188860 0.059018 S
0.268219 0.131399 0.106933 S
0.731781 0.131399 0.106933 S
0.264068 0.476397 0.108789 S
0.735932 0.476397 0.108789 S
0.235932 -0.156156 0.144126 S
0.764068 -0.156156 0.144126 S
-0.000000 -0.396568 0.166249 S
0.500000 -0.397322 0.168813 S
-0.000000 0.094705 0.170938 S
0.500000 0.084441 0.171312 S
0.231781 -0.652295 0.182560 S
0.768219 -0.652295 0.182560 S
0.268219 -0.332035 0.230475 S
0.731781 -0.332035 0.230475 S
0.264068 0.012962 0.232332 S
0.735932 0.012962 0.232332 S
0.235932 -0.619591 0.267668 S
0.764068 -0.619591 0.267668 S
-0.000000 -0.860002 0.289792 S
0.500000 -0.860757 0.292355 S
-0.000000 -0.368729 0.294481 S
0.500000 -0.378993 0.294855 S
0.231781 -1.115729 0.306103 S
0.768219 -1.115729 0.306103 S
0.268219 -0.795470 0.354018 S
0.731781 -0.795470 0.354018 S
0.264068 -0.450472 0.355874 S
0.735932 -0.450472 0.355874 S
0.235932 -1.083025 0.391211 S
0.764068 -1.083025 0.391211 S
-0.000000 -1.323437 0.413334 S
0.500000 -1.324191 0.415898 S
-0.000000 -0.832164 0.418023 S
0.500000 -0.842428 0.418397 S
0.231781 -1.579164 0.429645 S
0.768219 -1.579164 0.429645 S
0.268219 -1.258904 0.477560 S
0.731781 -1.258904 0.477560 S
0.264068 -0.913907 0.479417 S
0.735932 -0.913907 0.479417 S
0.235932 -0.307278 0.520583 S
0.764068 -0.307278 0.520583 S
-0.000000 -0.066867 0.542707 S
0.500000 -0.066112 0.545270 S
-0.000000 -0.558140 0.547396 S
0.500000 -0.547876 0.547769 S
0.231781 0.188860 0.559018 S
0.768219 0.188860 0.559018 S
0.268219 -0.131399 0.606933 S
0.731781 -0.131399 0.606933 S
0.264068 -0.476397 0.608789 S
0.735932 -0.476397 0.608789 S
0.235932 0.156156 0.644126 S
0.764068 0.156156 0.644126 S
-0.000000 0.396568 0.666249 S
0.500000 0.397322 0.668813 S
-0.000000 -0.094705 0.670938 S
0.500000 -0.084441 0.671312 S
0.231781 0.652295 0.682560 S
0.768219 0.652295 0.682560 S
0.268219 0.332035 0.730475 S
0.731781 0.332035 0.730475 S
0.264068 -0.012962 0.732332 S
0.735932 -0.012962 0.732332 S
0.235932 0.619591 0.767668 S
0.764068 0.619591 0.767668 S
-0.000000 0.860002 0.789792 S
0.500000 0.860757 0.792355 S
-0.000000 0.368729 0.794481 S
0.500000 0.378993 0.794855 S
0.231781 1.115729 0.806103 S
0.768219 1.115729 0.806103 S
0.268219 0.795470 0.854018 S
0.731781 0.795470 0.854018 S
0.264068 0.450472 0.855874 S
0.735932 0.450472 0.855874 S
0.235932 1.083025 0.891211 S
0.764068 1.083025 0.891211 S
-0.000000 1.323437 0.913334 S
0.500000 1.324191 0.915898 S
-0.000000 0.832164 0.918023 S
0.500000 0.842428 0.918397 S
0.231781 1.579164 0.929645 S
0.768219 1.579164 0.929645 S
0.268219 1.258904 0.977560 S
0.731781 1.258904 0.977560 S
0.264068 0.913907 0.979417 S
0.735932 0.913907 0.979417 S
