Cu16 Sb16 Pb16 S48
1.0
7.851884 -0.000000 0.000000
-0.000000 12.036551 -0.000000
0.000000 0.000000 28.693997
Cu Sb Pb S
16 16 16 48
direct
0.243585 0.237444 0.153363 Cu
0.756415 0.237444 0.153363 Cu
0.256415 -0.285770 0.163841 Cu
0.743585 -0.285770 0.163841 Cu
0.243585 -0.225991 0.362541 Cu
0.756415 -0.225991 0.362541 Cu
0.256415 -0.749204 0.373019 Cu
0.743585 -0.749204 0.373019 Cu
0.243585 -0.689425 0.571720 Cu
0.756415 -0.689425 0.571720 Cu
0.256415 -1.212639 0.582197 Cu
0.743585 -1.212639 0.582197 Cu
0.243585 -1.152860 0.780898 Cu
0.756415 -1.152860 0.780898 Cu
0.256415 -1.676073 0.791376 Cu
0.743585 -1.676073 0.791376 Cu
0.500000 0.207395 0.057749 Sb
0.500000 0.803979 0.063984 Sb
-0.000000 0.484709 0.158262 Sb
-0.000000 0.006595 0.198213 Sb
0.500000 -0.256040 0.266928 Sb
0.500000 0.340545 0.273162 Sb
-0.000000 0.021274 0.367440 Sb
-0.000000 -0.456839 0.407391 Sb
0.500000 -0.719474 0.476106 Sb
0.500000 -0.122890 0.482340 Sb
-0.000000 -0.442160 0.576619 Sb
-0.000000 -0.920274 0.616569 Sb
0.500000 -1.182909 0.685284 Sb
0.500000 -0.586325 0.691519 Sb
-0.000000 -0.905595 0.785797 Sb
-0.000000 -1.383708 0.825748 Sb
0.500000 0.495359 0.001025 Pb
-0.000000 0.176130 0.063294 Pb
-0.000000 -0.165662 0.073704 Pb
0.500000 0.495605 0.144777 Pb
0.500000 0.031924 0.210203 Pb
-0.000000 -0.287305 0.272472 Pb
-0.000000 -0.629096 0.282882 Pb
0.500000 0.032170 0.353955 Pb
0.500000 -0.431510 0.419381 Pb
-0.000000 -0.750739 0.481650 Pb
-0.000000 -1.092531 0.492060 Pb
0.500000 -0.431264 0.563133 Pb
0.500000 -0.894945 0.628559 Pb
-0.000000 -1.214174 0.690829 Pb
-0.000000 -1.555965 0.701238 Pb
0.500000 -0.894699 0.772311 Pb
0.231781 0.012928 0.000000 S
0.768219 0.012928 0.000000 S
0.731781 0.333187 0.081129 S
0.268219 0.333187 0.081129 S
0.735932 0.678185 0.084272 S
0.264068 0.678185 0.084272 S
0.235932 0.045631 0.144102 S
0.764068 0.045631 0.144102 S
-0.000000 -0.194780 0.181562 S
0.500000 -0.195534 0.185902 S
-0.000000 0.296493 0.189500 S
0.500000 0.286229 0.190133 S
0.231781 -0.450507 0.209178 S
0.768219 -0.450507 0.209178 S
0.268219 -0.130248 0.290307 S
0.731781 -0.130248 0.290307 S
0.264068 0.214750 0.293450 S
0.735932 0.214750 0.293450 S
0.235932 -0.417803 0.353280 S
0.764068 -0.417803 0.353280 S
-0.000000 -0.658214 0.390740 S
0.500000 -0.658969 0.395080 S
-0.000000 -0.166942 0.398679 S
0.500000 -0.177205 0.399312 S
0.231781 -0.913941 0.418357 S
0.768219 -0.913941 0.418357 S
0.268219 -0.593682 0.499485 S
0.731781 -0.593682 0.499485 S
0.264068 -0.248684 0.502629 S
0.735932 -0.248684 0.502629 S
0.235932 -0.881238 0.562459 S
0.764068 -0.881238 0.562459 S
-0.000000 -1.121649 0.599918 S
0.500000 -1.122403 0.604258 S
-0.000000 -0.630376 0.607857 S
0.500000 -0.640640 0.608490 S
0.231781 -1.377376 0.627535 S
0.768219 -1.377376 0.627535 S
0.268219 -1.057117 0.708664 S
0.731781 -1.057117 0.708664 S
0.264068 -0.712119 0.711807 S
0.735932 -0.712119 0.711807 S
0.235932 -1.344672 0.771637 S
0.764068 -1.344672 0.771637 S
-0.000000 -1.585083 0.809096 S
0.500000 -1.585838 0.813437 S
-0.000000 -1.093811 0.817035 S
0.500000 -1.104074 0.817668 S
