Cu16 Sb16 Pb16 S48
1.0
7.851884 -0.000000 0.000000
-0.000000 12.036551 -0.000000
0.000000 0.000000 28.500162
Cu Sb Pb S
16 16 16 48
direct
0.243585 0.168776 0.182211 Cu
0.756415 0.168776 0.182211 Cu
0.256415 -0.354438 0.192760 Cu
0.743585 -0.354438 0.192760 Cu
0.243585 -0.294659 0.392812 Cu
0.756415 -0.294659 0.392812 Cu
0.256415 -0.817872 0.403361 Cu
0.743585 -0.817872 0.403361 Cu
0.243585 -0.758093 0.603412 Cu
0.756415 -0.758093 0.603412 Cu
0.256415 -1.281307 0.613961 Cu
0.743585 -1.281307 0.613961 Cu
0.243585 -1.221528 0.814013 Cu
0.756415 -1.221528 0.814013 Cu
0.256415 -1.744741 0.824562 Cu
0.743585 -1.744741 0.824562 Cu
-0.000000 0.401362 0.016764 Sb
0.500000 0.138727 0.085947 Sb
0.500000 0.735311 0.092224 Sb
-0.000000 0.416041 0.187143 Sb
-0.000000 -0.062073 0.227365 Sb
0.500000 -0.324708 0.296548 Sb
0.500000 0.271877 0.302825 Sb
-0.000000 -0.047393 0.397744 Sb
-0.000000 -0.525507 0.437966 Sb
0.500000 -0.788142 0.507148 Sb
0.500000 -0.191558 0.513425 Sb
-0.000000 -0.510828 0.608345 Sb
-0.000000 -0.988942 0.648567 Sb
0.500000 -1.251577 0.717749 Sb
0.500000 -0.654992 0.724026 Sb
-0.000000 -0.974262 0.818946 Sb
0.500000 0.426691 0.028836 Pb
-0.000000 0.107462 0.091529 Pb
-0.000000 -0.234330 0.102009 Pb
0.500000 0.426937 0.173566 Pb
0.500000 -0.036744 0.239437 Pb
-0.000000 -0.355973 0.302130 Pb
-0.000000 -0.697764 0.312610 Pb
0.500000 -0.036498 0.384167 Pb
0.500000 -0.500178 0.450038 Pb
-0.000000 -0.819407 0.512731 Pb
-0.000000 -1.161199 0.523211 Pb
0.500000 -0.499932 0.594768 Pb
0.500000 -0.963613 0.660639 Pb
-0.000000 -1.282842 0.723332 Pb
-0.000000 -1.624633 0.733812 Pb
0.500000 -0.963367 0.805369 Pb
0.000000 0.199987 0.000000 S
0.500000 0.199232 0.004370 S
-0.000000 0.691260 0.007993 S
0.500000 0.680996 0.008630 S
0.231781 -0.055740 0.027805 S
0.768219 -0.055740 0.027805 S
0.731781 0.264519 0.109485 S
0.268219 0.264519 0.109485 S
0.264068 0.609517 0.112650 S
0.735932 0.609517 0.112650 S
0.235932 -0.023036 0.172887 S
0.764068 -0.023036 0.172887 S
-0.000000 -0.263448 0.210601 S
0.500000 -0.264202 0.214971 S
-0.000000 0.227825 0.218594 S
0.500000 0.217561 0.219231 S
0.231781 -0.519175 0.238405 S
0.768219 -0.519175 0.238405 S
0.268219 -0.198915 0.320086 S
0.731781 -0.198915 0.320086 S
0.264068 0.146082 0.323251 S
0.735932 0.146082 0.323251 S
0.235932 -0.486471 0.383488 S
0.764068 -0.486471 0.383488 S
-0.000000 -0.726882 0.421202 S
0.500000 -0.727637 0.425572 S
-0.000000 -0.235609 0.429195 S
0.500000 -0.245873 0.429832 S
0.231781 -0.982609 0.449006 S
0.768219 -0.982609 0.449006 S
0.268219 -0.662350 0.530687 S
0.731781 -0.662350 0.530687 S
0.264068 -0.317352 0.533852 S
0.735932 -0.317352 0.533852 S
0.235932 -0.949905 0.594089 S
0.764068 -0.949905 0.594089 S
-0.000000 -1.190317 0.631803 S
0.500000 -1.191071 0.636172 S
-0.000000 -0.699044 0.639796 S
0.500000 -0.709308 0.640433 S
0.231781 -1.446044 0.659607 S
0.768219 -1.446044 0.659607 S
0.268219 -1.125784 0.741288 S
0.731781 -1.125784 0.741288 S
0.264068 -0.780787 0.744453 S
0.735932 -0.780787 0.744453 S
0.235932 -1.413340 0.804690 S
0.764068 -1.413340 0.804690 S
