Cu16 Sb16 Pb16 S48
1.0
7.851884 -0.000000 0.000000
-0.000000 12.036551 -0.000000
0.000000 0.000000 28.884105
Cu Sb Pb S
16 16 16 48
direct
0.243585 0.193214 0.175477 Cu
0.756415 0.193214 0.175477 Cu
0.256415 -0.330000 0.185886 Cu
0.743585 -0.330000 0.185886 Cu
0.243585 -0.270221 0.383278 Cu
0.756415 -0.270221 0.383278 Cu
0.256415 -0.793434 0.393687 Cu
0.743585 -0.793434 0.393687 Cu
0.243585 -0.733655 0.591080 Cu
0.756415 -0.733655 0.591080 Cu
0.256415 -1.256869 0.601489 Cu
0.743585 -1.256869 0.601489 Cu
0.243585 -1.197090 0.798881 Cu
0.756415 -1.197090 0.798881 Cu
0.256415 -1.720303 0.809290 Cu
0.743585 -1.720303 0.809290 Cu
-0.000000 0.425800 0.012230 Sb
0.500000 0.163165 0.080493 Sb
0.500000 0.759749 0.086686 Sb
-0.000000 0.440479 0.180344 Sb
-0.000000 -0.037635 0.220031 Sb
0.500000 -0.300270 0.288294 Sb
0.500000 0.296315 0.294488 Sb
-0.000000 -0.022955 0.388145 Sb
-0.000000 -0.501069 0.427833 Sb
0.500000 -0.763704 0.496096 Sb
0.500000 -0.167120 0.502289 Sb
-0.000000 -0.486390 0.595947 Sb
-0.000000 -0.964504 0.635634 Sb
0.500000 -1.227139 0.703897 Sb
0.500000 -0.630554 0.710091 Sb
-0.000000 -0.949824 0.803748 Sb
0.500000 0.451129 0.024141 Pb
-0.000000 0.131900 0.086001 Pb
-0.000000 -0.209892 0.096342 Pb
0.500000 0.451375 0.166947 Pb
0.500000 -0.012306 0.231943 Pb
-0.000000 -0.331535 0.293802 Pb
-0.000000 -0.673326 0.304143 Pb
0.500000 -0.012060 0.374749 Pb
0.500000 -0.475740 0.439744 Pb
-0.000000 -0.794969 0.501604 Pb
-0.000000 -1.136761 0.511945 Pb
0.500000 -0.475494 0.582550 Pb
0.500000 -0.939175 0.647546 Pb
-0.000000 -1.258404 0.709405 Pb
-0.000000 -1.600195 0.719746 Pb
0.500000 -0.938929 0.790352 Pb
0.500000 0.223670 0.000000 S
-0.000000 0.715698 0.003575 S
0.500000 0.705434 0.004204 S
0.231781 -0.031302 0.023123 S
0.768219 -0.031302 0.023123 S
0.268219 0.288957 0.103718 S
0.731781 0.288957 0.103718 S
0.735932 0.633955 0.106841 S
0.264068 0.633955 0.106841 S
0.235932 0.001402 0.166277 S
0.764068 0.001402 0.166277 S
-0.000000 -0.239010 0.203490 S
0.500000 -0.239764 0.207802 S
-0.000000 0.252263 0.211376 S
0.500000 0.241999 0.212005 S
0.231781 -0.494737 0.230925 S
0.768219 -0.494737 0.230925 S
0.268219 -0.174477 0.311520 S
0.731781 -0.174477 0.311520 S
0.264068 0.170520 0.314642 S
0.735932 0.170520 0.314642 S
0.235932 -0.462033 0.374079 S
0.764068 -0.462033 0.374079 S
-0.000000 -0.702444 0.411291 S
0.500000 -0.703199 0.415603 S
-0.000000 -0.211171 0.419178 S
0.500000 -0.221435 0.419807 S
0.231781 -0.958171 0.438726 S
0.768219 -0.958171 0.438726 S
0.268219 -0.637912 0.519321 S
0.731781 -0.637912 0.519321 S
0.264068 -0.292914 0.522444 S
0.735932 -0.292914 0.522444 S
0.235932 -0.925467 0.581880 S
0.764068 -0.925467 0.581880 S
-0.000000 -1.165879 0.619093 S
0.500000 -1.166633 0.623405 S
-0.000000 -0.674606 0.626979 S
0.500000 -0.684870 0.627608 S
0.231781 -1.421606 0.646528 S
0.768219 -1.421606 0.646528 S
0.268219 -1.101346 0.727123 S
0.731781 -1.101346 0.727123 S
0.264068 -0.756349 0.730245 S
0.735932 -0.756349 0.730245 S
0.235932 -1.388902 0.789682 S
0.764068 -1.388902 0.789682 S
-0.000000 -1.629313 0.826894 S
