Cu16 Sb16 Pb16 S48
1.0
7.851884 -0.000000 0.000000
-0.000000 12.036551 -0.000000
0.000000 0.000000 28.848564
Cu Sb Pb S
16 16 16 48
direct
0.256415 0.083187 0.000000 Cu
0.743585 0.083187 0.000000 Cu
0.756415 0.142966 0.197636 Cu
0.243585 0.142966 0.197636 Cu
0.256415 -0.380248 0.208058 Cu
0.743585 -0.380248 0.208058 Cu
0.243585 -0.320469 0.405693 Cu
0.756415 -0.320469 0.405693 Cu
0.256415 -0.843682 0.416115 Cu
0.743585 -0.843682 0.416115 Cu
0.243585 -0.783903 0.613751 Cu
0.756415 -0.783903 0.613751 Cu
0.256415 -1.307117 0.624173 Cu
0.743585 -1.307117 0.624173 Cu
0.243585 -1.247338 0.821808 Cu
0.756415 -1.247338 0.821808 Cu
-0.000000 0.375552 0.034188 Sb
0.500000 0.112917 0.102534 Sb
0.500000 0.709501 0.108736 Sb
-0.000000 0.390231 0.202509 Sb
-0.000000 -0.087883 0.242245 Sb
0.500000 -0.350518 0.310592 Sb
0.500000 0.246067 0.316793 Sb
-0.000000 -0.073204 0.410566 Sb
-0.000000 -0.551317 0.450303 Sb
0.500000 -0.813952 0.518650 Sb
0.500000 -0.217368 0.524851 Sb
-0.000000 -0.536638 0.618624 Sb
-0.000000 -1.014752 0.658360 Sb
0.500000 -1.277387 0.726707 Sb
0.500000 -0.680803 0.732908 Sb
-0.000000 -1.000073 0.826681 Sb
0.500000 0.400881 0.046114 Pb
-0.000000 0.081652 0.108049 Pb
-0.000000 -0.260140 0.118403 Pb
0.500000 0.401127 0.189096 Pb
0.500000 -0.062554 0.254171 Pb
-0.000000 -0.381783 0.316107 Pb
-0.000000 -0.723574 0.326461 Pb
0.500000 -0.062308 0.397153 Pb
0.500000 -0.525988 0.462229 Pb
-0.000000 -0.845217 0.524164 Pb
-0.000000 -1.187009 0.534518 Pb
0.500000 -0.525742 0.605211 Pb
0.500000 -0.989423 0.670286 Pb
-0.000000 -1.308652 0.732222 Pb
-0.000000 -1.650443 0.742576 Pb
0.500000 -0.989177 0.813268 Pb
-0.000000 0.174177 0.017626 S
0.500000 0.173422 0.021943 S
-0.000000 0.665449 0.025522 S
0.500000 0.655186 0.026152 S
0.231781 -0.081550 0.045095 S
0.768219 -0.081550 0.045095 S
0.268219 0.238709 0.125789 S
0.731781 0.238709 0.125789 S
0.264068 0.583707 0.128915 S
0.735932 0.583707 0.128915 S
0.235932 -0.048847 0.188425 S
0.764068 -0.048847 0.188425 S
-0.000000 -0.289258 0.225683 S
0.500000 -0.290012 0.230000 S
-0.000000 0.202015 0.233580 S
0.500000 0.191751 0.234209 S
0.231781 -0.544985 0.253152 S
0.768219 -0.544985 0.253152 S
0.268219 -0.224726 0.333846 S
0.731781 -0.224726 0.333846 S
0.264068 0.120272 0.336973 S
0.735932 0.120272 0.336973 S
0.235932 -0.512281 0.396482 S
0.764068 -0.512281 0.396482 S
-0.000000 -0.752692 0.433741 S
0.500000 -0.753447 0.438058 S
-0.000000 -0.261420 0.441637 S
0.500000 -0.271683 0.442267 S
0.231781 -1.008419 0.461210 S
0.768219 -1.008419 0.461210 S
0.268219 -0.688160 0.541904 S
0.731781 -0.688160 0.541904 S
0.264068 -0.343162 0.545030 S
0.735932 -0.343162 0.545030 S
0.235932 -0.975716 0.604540 S
0.764068 -0.975716 0.604540 S
-0.000000 -1.216127 0.641798 S
0.500000 -1.216881 0.646115 S
-0.000000 -0.724854 0.649695 S
0.500000 -0.735118 0.650324 S
0.231781 -1.471854 0.669267 S
0.768219 -1.471854 0.669267 S
0.268219 -1.151595 0.749961 S
0.731781 -1.151595 0.749961 S
0.264068 -0.806597 0.753088 S
0.735932 -0.806597 0.753088 S
0.235932 -1.439150 0.812597 S
0.764068 -1.439150 0.812597 S
