Cu16 Sb16 Pb16 S48
1.0
7.851884 -0.000000 0.000000
-0.000000 12.036551 -0.000000
0.000000 0.000000 27.380981
Cu Sb Pb S
16 16 16 48
direct
0.243585 0.313562 0.100199 Cu
0.756415 0.313562 0.100199 Cu
0.743585 -0.209651 0.111179 Cu
0.256415 -0.209651 0.111179 Cu
0.243585 -0.149872 0.319408 Cu
0.756415 -0.149872 0.319408 Cu
0.256415 -0.673085 0.330388 Cu
0.743585 -0.673085 0.330388 Cu
0.243585 -0.613307 0.538617 Cu
0.756415 -0.613307 0.538617 Cu
0.256415 -1.136520 0.549597 Cu
0.743585 -1.136520 0.549597 Cu
0.243585 -1.076741 0.757826 Cu
0.756415 -1.076741 0.757826 Cu
0.256415 -1.599955 0.768806 Cu
0.743585 -1.599955 0.768806 Cu
0.500000 0.283514 0.000000 Sb
0.500000 0.880098 0.006534 Sb
-0.000000 0.560828 0.105333 Sb
-0.000000 0.082714 0.147199 Sb
0.500000 -0.179921 0.219209 Sb
0.500000 0.416663 0.225743 Sb
-0.000000 0.097393 0.324542 Sb
-0.000000 -0.380721 0.366408 Sb
0.500000 -0.643355 0.438418 Sb
0.500000 -0.046771 0.444952 Sb
-0.000000 -0.366041 0.543751 Sb
-0.000000 -0.844155 0.585617 Sb
0.500000 -1.106790 0.657627 Sb
0.500000 -0.510206 0.664161 Sb
-0.000000 -0.829476 0.762960 Sb
-0.000000 -1.307590 0.804826 Sb
-0.000000 0.252249 0.005810 Pb
-0.000000 -0.089543 0.016719 Pb
0.500000 0.571724 0.091201 Pb
0.500000 0.108043 0.159764 Pb
-0.000000 -0.211186 0.225020 Pb
-0.000000 -0.552978 0.235928 Pb
0.500000 0.108289 0.310410 Pb
0.500000 -0.355391 0.378973 Pb
-0.000000 -0.674620 0.444229 Pb
-0.000000 -1.016412 0.455138 Pb
0.500000 -0.355145 0.529619 Pb
0.500000 -0.818826 0.598182 Pb
-0.000000 -1.138055 0.663438 Pb
-0.000000 -1.479847 0.674347 Pb
0.500000 -0.818580 0.748828 Pb
0.500000 -1.282260 0.817391 Pb
0.731781 0.409306 0.024501 S
0.268219 0.409306 0.024501 S
0.735932 0.754304 0.027795 S
0.264068 0.754304 0.027795 S
0.235932 0.121750 0.090494 S
0.764068 0.121750 0.090494 S
-0.000000 -0.118661 0.129749 S
0.500000 -0.119415 0.134298 S
-0.000000 0.372612 0.138069 S
0.500000 0.362348 0.138732 S
0.231781 -0.374388 0.158690 S
0.768219 -0.374388 0.158690 S
0.268219 -0.054129 0.243710 S
0.731781 -0.054129 0.243710 S
0.264068 0.290869 0.247004 S
0.735932 0.290869 0.247004 S
0.235932 -0.341684 0.309703 S
0.764068 -0.341684 0.309703 S
-0.000000 -0.582095 0.348959 S
0.500000 -0.582850 0.353507 S
-0.000000 -0.090823 0.357278 S
0.500000 -0.101086 0.357942 S
0.231781 -0.837822 0.377900 S
0.768219 -0.837822 0.377900 S
0.268219 -0.517563 0.462919 S
0.731781 -0.517563 0.462919 S
0.264068 -0.172565 0.466213 S
0.735932 -0.172565 0.466213 S
0.235932 -0.805119 0.528912 S
0.764068 -0.805119 0.528912 S
-0.000000 -1.045530 0.568168 S
0.500000 -1.046284 0.572716 S
-0.000000 -0.554257 0.576487 S
0.500000 -0.564521 0.577151 S
0.231781 -1.301257 0.597109 S
0.768219 -1.301257 0.597109 S
0.268219 -0.980998 0.682128 S
0.731781 -0.980998 0.682128 S
0.264068 -0.636000 0.685422 S
0.735932 -0.636000 0.685422 S
0.235932 -1.268553 0.748121 S
0.764068 -1.268553 0.748121 S
-0.000000 -1.508964 0.787377 S
0.500000 -1.509719 0.791925 S
-0.000000 -1.017692 0.795696 S
0.500000 -1.027955 0.796360 S
0.231781 -1.764691 0.816318 S
0.768219 -1.764691 0.816318 S
