Sb2 Se3                                 
   1.00000000000000     
    11.5198414097392057    0.0000000000000000    0.0000000000000000
     0.0000000000000000   11.9116717060330046    0.0000000000000000
     0.0000000000000000    0.0000000000000000    3.9757375332335654
   Sb   Se
     8    12
Direct
  0.3276896770385468  0.0296750704960925  0.7500000000000000
  0.6723103229614532  0.9703249345039114  0.2500000000000000
  0.8276896770385468  0.4703249345039115  0.2500000000000000
  0.1723103229614603  0.5296750654960886  0.7500000000000000
  0.0371544314181133  0.1461890344350519  0.2500000000000000
  0.9628455385818843  0.8538109955649507  0.7500000000000000
  0.5371544614181157  0.3538109655649481  0.7500000000000000
  0.4628455685818867  0.6461890044350493  0.2500000000000000
  0.8712611690922839  0.0525703074520098  0.7500000000000000
  0.1287388309077161  0.9474297115479883  0.2500000000000000
  0.3712611690922840  0.4474296815479928  0.2500000000000000
  0.6287388309077161  0.5525702884520117  0.7500000000000000
  0.4450470982113911  0.1271133905076892  0.2500000000000000
  0.5549528727886029  0.8728865804923119  0.7500000000000000
  0.9450471272113971  0.3728866094923108  0.7500000000000000
  0.0549529017886089  0.6271134195076881  0.2500000000000000
  0.1929542665129904  0.2106934613226241  0.7500000000000000
  0.8070457484870144  0.7893065686773714  0.2500000000000000
  0.6929542515129856  0.2893065386773759  0.2500000000000000
  0.3070457484870144  0.7106934313226286  0.7500000000000000
 
  0.00000000E+00  0.00000000E+00  0.00000000E+00
  0.00000000E+00  0.00000000E+00  0.00000000E+00
  0.00000000E+00  0.00000000E+00  0.00000000E+00
  0.00000000E+00  0.00000000E+00  0.00000000E+00
  0.00000000E+00  0.00000000E+00  0.00000000E+00
  0.00000000E+00  0.00000000E+00  0.00000000E+00
  0.00000000E+00  0.00000000E+00  0.00000000E+00
  0.00000000E+00  0.00000000E+00  0.00000000E+00
  0.00000000E+00  0.00000000E+00  0.00000000E+00
  0.00000000E+00  0.00000000E+00  0.00000000E+00
  0.00000000E+00  0.00000000E+00  0.00000000E+00
  0.00000000E+00  0.00000000E+00  0.00000000E+00
  0.00000000E+00  0.00000000E+00  0.00000000E+00
  0.00000000E+00  0.00000000E+00  0.00000000E+00
  0.00000000E+00  0.00000000E+00  0.00000000E+00
  0.00000000E+00  0.00000000E+00  0.00000000E+00
  0.00000000E+00  0.00000000E+00  0.00000000E+00
  0.00000000E+00  0.00000000E+00  0.00000000E+00
  0.00000000E+00  0.00000000E+00  0.00000000E+00
  0.00000000E+00  0.00000000E+00  0.00000000E+00
