Cu16 Sb16 Pb16 S48
1.0
7.851884 -0.000000 0.000000
-0.000000 12.036551 -0.000000
0.000000 0.000000 28.868072
Cu Sb Pb S
16 16 16 48
direct
0.256415 0.071580 0.005545 Cu
0.743585 0.071580 0.005545 Cu
0.243585 0.131359 0.203048 Cu
0.756415 0.131359 0.203048 Cu
0.256415 -0.391855 0.213462 Cu
0.743585 -0.391855 0.213462 Cu
0.243585 -0.332076 0.410964 Cu
0.756415 -0.332076 0.410964 Cu
0.256415 -0.855289 0.421379 Cu
0.743585 -0.855289 0.421379 Cu
0.243585 -0.795510 0.618881 Cu
0.756415 -0.795510 0.618881 Cu
0.256415 -1.318724 0.629296 Cu
0.743585 -1.318724 0.629296 Cu
0.243585 -1.258945 0.826798 Cu
0.756415 -1.258945 0.826798 Cu
0.000000 0.842059 0.000000 Sb
-0.000000 0.363945 0.039710 Sb
0.500000 0.101310 0.108010 Sb
0.500000 0.697894 0.114207 Sb
-0.000000 0.378624 0.207917 Sb
-0.000000 -0.099490 0.247627 Sb
0.500000 -0.362125 0.315927 Sb
0.500000 0.234460 0.322124 Sb
-0.000000 -0.084810 0.415834 Sb
-0.000000 -0.562924 0.455544 Sb
0.500000 -0.825559 0.523844 Sb
0.500000 -0.228975 0.530041 Sb
-0.000000 -0.548245 0.623751 Sb
-0.000000 -1.026359 0.663461 Sb
0.500000 -1.288994 0.731761 Sb
0.500000 -0.692409 0.737958 Sb
0.500000 0.389274 0.051628 Pb
-0.000000 0.070045 0.113521 Pb
-0.000000 -0.271747 0.123868 Pb
0.500000 0.389520 0.194513 Pb
0.500000 -0.074161 0.259545 Pb
-0.000000 -0.393389 0.321438 Pb
-0.000000 -0.735181 0.331785 Pb
0.500000 -0.073914 0.402430 Pb
0.500000 -0.537595 0.467461 Pb
-0.000000 -0.856824 0.529355 Pb
-0.000000 -1.198616 0.539702 Pb
0.500000 -0.537349 0.610347 Pb
0.500000 -1.001030 0.675378 Pb
-0.000000 -1.320258 0.737272 Pb
-0.000000 -1.662050 0.747619 Pb
0.500000 -1.000783 0.818264 Pb
-0.000000 0.162570 0.023159 S
0.500000 0.161815 0.027473 S
-0.000000 0.653843 0.031050 S
0.500000 0.643579 0.031679 S
0.231781 -0.093157 0.050609 S
0.768219 -0.093157 0.050609 S
0.268219 0.227102 0.131249 S
0.731781 0.227102 0.131249 S
0.735932 0.572100 0.134373 S
0.264068 0.572100 0.134373 S
0.764068 -0.060453 0.193842 S
0.235932 -0.060453 0.193842 S
-0.000000 -0.300864 0.231076 S
0.500000 -0.301619 0.235390 S
-0.000000 0.190408 0.238967 S
0.500000 0.180145 0.239596 S
0.231781 -0.556592 0.258526 S
0.768219 -0.556592 0.258526 S
0.268219 -0.236332 0.339166 S
0.731781 -0.236332 0.339166 S
0.264068 0.108666 0.342290 S
0.735932 0.108666 0.342290 S
0.235932 -0.523888 0.401759 S
0.764068 -0.523888 0.401759 S
-0.000000 -0.764299 0.438993 S
0.500000 -0.765054 0.443307 S
-0.000000 -0.273026 0.446884 S
0.500000 -0.283290 0.447513 S
0.231781 -1.020026 0.466443 S
0.768219 -1.020026 0.466443 S
0.268219 -0.699767 0.547083 S
0.731781 -0.699767 0.547083 S
0.264068 -0.354769 0.550207 S
0.735932 -0.354769 0.550207 S
0.235932 -0.987322 0.609676 S
0.764068 -0.987322 0.609676 S
-0.000000 -1.227733 0.646910 S
0.500000 -1.228488 0.651224 S
-0.000000 -0.736461 0.654801 S
0.500000 -0.746724 0.655430 S
0.231781 -1.483461 0.674360 S
0.768219 -1.483461 0.674360 S
0.268219 -1.163201 0.755000 S
0.731781 -1.163201 0.755000 S
0.264068 -0.818203 0.758124 S
0.735932 -0.818203 0.758124 S
0.235932 -1.450757 0.817593 S
0.764068 -1.450757 0.817593 S
