Cu16 Sb16 Pb16 S48
1.0
7.851884 -0.000000 0.000000
-0.000000 12.036551 -0.000000
0.000000 0.000000 28.762264
Cu Sb Pb S
16 16 16 48
direct
0.756415 0.579108 0.000000 Cu
0.243585 0.579108 0.000000 Cu
0.256415 0.055894 0.010453 Cu
0.743585 0.055894 0.010453 Cu
0.243585 0.115673 0.208682 Cu
0.756415 0.115673 0.208682 Cu
0.256415 -0.407540 0.219135 Cu
0.743585 -0.407540 0.219135 Cu
0.243585 -0.347761 0.417364 Cu
0.756415 -0.347761 0.417364 Cu
0.256415 -0.870975 0.427816 Cu
0.743585 -0.870975 0.427816 Cu
0.243585 -0.811196 0.626045 Cu
0.756415 -0.811196 0.626045 Cu
0.256415 -1.334409 0.636498 Cu
0.743585 -1.334409 0.636498 Cu
-0.000000 0.826373 0.004887 Sb
-0.000000 0.348259 0.044743 Sb
0.500000 0.085624 0.113295 Sb
0.500000 0.682209 0.119515 Sb
-0.000000 0.362939 0.213569 Sb
-0.000000 -0.115175 0.253425 Sb
0.500000 -0.377810 0.321977 Sb
0.500000 0.218774 0.328197 Sb
-0.000000 -0.100496 0.422251 Sb
-0.000000 -0.578610 0.462107 Sb
0.500000 -0.841245 0.530659 Sb
0.500000 -0.244660 0.536878 Sb
-0.000000 -0.563930 0.630933 Sb
-0.000000 -1.042044 0.670789 Sb
0.500000 -1.304679 0.739340 Sb
0.500000 -0.708095 0.745560 Sb
0.500000 0.373588 0.056705 Pb
-0.000000 0.054360 0.118826 Pb
-0.000000 -0.287432 0.129211 Pb
0.500000 0.373835 0.200116 Pb
0.500000 -0.089846 0.265387 Pb
-0.000000 -0.409075 0.327508 Pb
-0.000000 -0.750867 0.337893 Pb
0.500000 -0.089600 0.408798 Pb
0.500000 -0.553281 0.474068 Pb
-0.000000 -0.872509 0.536190 Pb
-0.000000 -1.214301 0.546575 Pb
0.500000 -0.553034 0.617479 Pb
0.500000 -1.016715 0.682750 Pb
-0.000000 -1.335944 0.744872 Pb
-0.000000 -1.677736 0.755257 Pb
0.500000 -1.016469 0.826161 Pb
-0.000000 0.146885 0.028132 S
0.500000 0.146130 0.032461 S
-0.000000 0.638157 0.036052 S
0.500000 0.627894 0.036683 S
0.231781 -0.108843 0.055683 S
0.768219 -0.108843 0.055683 S
0.268219 0.211417 0.136619 S
0.731781 0.211417 0.136619 S
0.264068 0.556415 0.139755 S
0.735932 0.556415 0.139755 S
0.235932 -0.076139 0.199443 S
0.764068 -0.076139 0.199443 S
-0.000000 -0.316550 0.236813 S
0.500000 -0.317305 0.241143 S
-0.000000 0.174723 0.244733 S
0.500000 0.164459 0.245365 S
0.231781 -0.572277 0.264365 S
0.768219 -0.572277 0.264365 S
0.268219 -0.252018 0.345301 S
0.731781 -0.252018 0.345301 S
0.264068 0.092980 0.348437 S
0.735932 0.092980 0.348437 S
0.235932 -0.539573 0.408125 S
0.764068 -0.539573 0.408125 S
-0.000000 -0.779984 0.445495 S
0.500000 -0.780739 0.449825 S
-0.000000 -0.288712 0.453415 S
0.500000 -0.298975 0.454047 S
0.231781 -1.035712 0.473046 S
0.768219 -1.035712 0.473046 S
0.268219 -0.715452 0.553982 S
0.731781 -0.715452 0.553982 S
0.264068 -0.370454 0.557118 S
0.735932 -0.370454 0.557118 S
0.235932 -1.003008 0.616806 S
0.764068 -1.003008 0.616806 S
-0.000000 -1.243419 0.654177 S
0.500000 -1.244174 0.658507 S
-0.000000 -0.752146 0.662097 S
0.500000 -0.762410 0.662728 S
0.231781 -1.499146 0.681728 S
0.768219 -1.499146 0.681728 S
0.268219 -1.178887 0.762664 S
0.731781 -1.178887 0.762664 S
0.264068 -0.833889 0.765800 S
0.735932 -0.833889 0.765800 S
0.235932 -1.466442 0.825488 S
0.764068 -1.466442 0.825488 S
