Cu16 Sb16 Pb16 S48
1.0
7.851884 -0.000000 0.000000
-0.000000 12.036551 -0.000000
0.000000 0.000000 28.776816
Cu Sb Pb S
16 16 16 48
direct
0.756415 0.216347 0.163856 Cu
0.243585 0.216347 0.163856 Cu
0.256415 -0.306867 0.174303 Cu
0.743585 -0.306867 0.174303 Cu
0.243585 -0.247088 0.372432 Cu
0.756415 -0.247088 0.372432 Cu
0.256415 -0.770301 0.382880 Cu
0.743585 -0.770301 0.382880 Cu
0.243585 -0.710522 0.581008 Cu
0.756415 -0.710522 0.581008 Cu
0.256415 -1.233736 0.591456 Cu
0.743585 -1.233736 0.591456 Cu
0.243585 -1.173957 0.789584 Cu
0.756415 -1.173957 0.789584 Cu
0.256415 -1.697170 0.800032 Cu
0.743585 -1.697170 0.800032 Cu
0.000000 0.448933 0.000000 Sb
0.500000 0.186298 0.068517 Sb
0.500000 0.782882 0.074734 Sb
-0.000000 0.463612 0.168741 Sb
-0.000000 -0.014502 0.208576 Sb
0.500000 -0.277137 0.277093 Sb
0.500000 0.319448 0.283310 Sb
-0.000000 0.000178 0.377317 Sb
-0.000000 -0.477936 0.417153 Sb
0.500000 -0.740571 0.485670 Sb
0.500000 -0.143987 0.491886 Sb
-0.000000 -0.463257 0.585893 Sb
-0.000000 -0.941371 0.625729 Sb
0.500000 -1.204006 0.694246 Sb
0.500000 -0.607421 0.700463 Sb
-0.000000 -0.926691 0.794469 Sb
0.500000 0.474262 0.011956 Pb
-0.000000 0.155033 0.074046 Pb
-0.000000 -0.186759 0.084426 Pb
0.500000 0.474508 0.155294 Pb
0.500000 0.010827 0.220532 Pb
-0.000000 -0.308402 0.282622 Pb
-0.000000 -0.650193 0.293002 Pb
0.500000 0.011073 0.363870 Pb
0.500000 -0.452607 0.429108 Pb
-0.000000 -0.771836 0.491198 Pb
-0.000000 -1.113628 0.501578 Pb
0.500000 -0.452361 0.572446 Pb
0.500000 -0.916042 0.637684 Pb
-0.000000 -1.235271 0.699775 Pb
-0.000000 -1.577062 0.710154 Pb
0.500000 -0.915796 0.781023 Pb
0.231781 -0.008169 0.010934 S
0.768219 -0.008169 0.010934 S
0.731781 0.312090 0.091829 S
0.268219 0.312090 0.091829 S
0.264068 0.657088 0.094964 S
0.735932 0.657088 0.094964 S
0.235932 0.024535 0.154621 S
0.764068 0.024535 0.154621 S
-0.000000 -0.215877 0.191973 S
0.500000 -0.216631 0.196301 S
-0.000000 0.275396 0.199889 S
0.500000 0.265132 0.200520 S
0.231781 -0.471604 0.219510 S
0.768219 -0.471604 0.219510 S
0.268219 -0.151344 0.300405 S
0.731781 -0.151344 0.300405 S
0.264068 0.193653 0.303540 S
0.735932 0.193653 0.303540 S
0.235932 -0.438900 0.363198 S
0.764068 -0.438900 0.363198 S
-0.000000 -0.679311 0.400549 S
0.500000 -0.680066 0.404877 S
-0.000000 -0.188038 0.408465 S
0.500000 -0.198302 0.409097 S
0.231781 -0.935038 0.428086 S
0.768219 -0.935038 0.428086 S
0.268219 -0.614779 0.508982 S
0.731781 -0.614779 0.508982 S
0.264068 -0.269781 0.512116 S
0.735932 -0.269781 0.512116 S
0.235932 -0.902334 0.571774 S
0.764068 -0.902334 0.571774 S
-0.000000 -1.142746 0.609126 S
0.500000 -1.143500 0.613453 S
-0.000000 -0.651473 0.617041 S
0.500000 -0.661737 0.617673 S
0.231781 -1.398473 0.636663 S
0.768219 -1.398473 0.636663 S
0.268219 -1.078213 0.717558 S
0.731781 -1.078213 0.717558 S
0.264068 -0.733216 0.720692 S
0.735932 -0.733216 0.720692 S
0.235932 -1.365769 0.780350 S
0.764068 -1.365769 0.780350 S
-0.000000 -1.606180 0.817702 S
0.500000 -1.606935 0.822029 S
-0.000000 -1.114907 0.825618 S
0.500000 -1.125171 0.826249 S
