Cu16 Sb16 Pb16 S48
1.0
7.851884 -0.000000 0.000000
-0.000000 12.036551 -0.000000
0.000000 0.000000 28.905384
Cu Sb Pb S
16 16 16 48
direct
0.243585 0.202709 0.171776 Cu
0.756415 0.202709 0.171776 Cu
0.256415 -0.320504 0.182177 Cu
0.743585 -0.320504 0.182177 Cu
0.243585 -0.260725 0.379424 Cu
0.756415 -0.260725 0.379424 Cu
0.256415 -0.783939 0.389825 Cu
0.743585 -0.783939 0.389825 Cu
0.243585 -0.724160 0.587073 Cu
0.756415 -0.724160 0.587073 Cu
0.256415 -1.247373 0.597474 Cu
0.743585 -1.247373 0.597474 Cu
0.243585 -1.187594 0.794721 Cu
0.756415 -1.187594 0.794721 Cu
0.256415 -1.710808 0.805122 Cu
0.743585 -1.710808 0.805122 Cu
-0.000000 0.435295 0.008649 Sb
0.500000 0.172660 0.076861 Sb
0.500000 0.769245 0.083050 Sb
-0.000000 0.449975 0.176639 Sb
-0.000000 -0.028139 0.216297 Sb
0.500000 -0.290774 0.284510 Sb
0.500000 0.305810 0.290699 Sb
-0.000000 -0.013460 0.384287 Sb
-0.000000 -0.491574 0.423946 Sb
0.500000 -0.754209 0.492158 Sb
0.500000 -0.157624 0.498347 Sb
-0.000000 -0.476894 0.591936 Sb
-0.000000 -0.955008 0.631594 Sb
0.500000 -1.217643 0.699807 Sb
0.500000 -0.621059 0.705996 Sb
-0.000000 -0.940329 0.799584 Sb
0.500000 0.460624 0.020551 Pb
-0.000000 0.141395 0.082365 Pb
-0.000000 -0.200396 0.092699 Pb
0.500000 0.460870 0.163252 Pb
0.500000 -0.002810 0.228200 Pb
-0.000000 -0.322039 0.290014 Pb
-0.000000 -0.663831 0.300347 Pb
0.500000 -0.002564 0.370900 Pb
0.500000 -0.466245 0.435848 Pb
-0.000000 -0.785474 0.497662 Pb
-0.000000 -1.127265 0.507996 Pb
0.500000 -0.465999 0.578549 Pb
0.500000 -0.929679 0.643497 Pb
-0.000000 -1.248908 0.705311 Pb
-0.000000 -1.590700 0.715644 Pb
0.500000 -0.929433 0.786197 Pb
0.000000 0.725193 0.000000 S
0.500000 0.714929 0.000628 S
0.231781 -0.021807 0.019534 S
0.768219 -0.021807 0.019534 S
0.268219 0.298453 0.100069 S
0.731781 0.298453 0.100069 S
0.735932 0.643450 0.103190 S
0.264068 0.643450 0.103190 S
0.235932 0.010897 0.162582 S
0.764068 0.010897 0.162582 S
-0.000000 -0.229514 0.199768 S
0.500000 -0.230269 0.204076 S
-0.000000 0.261759 0.207649 S
0.500000 0.251495 0.208277 S
0.231781 -0.485241 0.227183 S
0.768219 -0.485241 0.227183 S
0.268219 -0.164982 0.307718 S
0.731781 -0.164982 0.307718 S
0.264068 0.180016 0.310838 S
0.735932 0.180016 0.310838 S
0.235932 -0.452537 0.370231 S
0.764068 -0.452537 0.370231 S
-0.000000 -0.692949 0.407416 S
0.500000 -0.693703 0.411725 S
-0.000000 -0.201676 0.415297 S
0.500000 -0.211940 0.415926 S
0.231781 -0.948676 0.434831 S
0.768219 -0.948676 0.434831 S
0.268219 -0.628416 0.515367 S
0.731781 -0.628416 0.515367 S
0.264068 -0.283419 0.518487 S
0.735932 -0.283419 0.518487 S
0.235932 -0.915972 0.577879 S
0.764068 -0.915972 0.577879 S
-0.000000 -1.156383 0.615065 S
0.500000 -1.157138 0.619373 S
-0.000000 -0.665110 0.622946 S
0.500000 -0.675374 0.623574 S
0.231781 -1.412110 0.642480 S
0.768219 -1.412110 0.642480 S
0.268219 -1.091851 0.723015 S
0.731781 -1.091851 0.723015 S
0.264068 -0.746853 0.726136 S
0.735932 -0.746853 0.726136 S
0.235932 -1.379406 0.785528 S
0.764068 -1.379406 0.785528 S
-0.000000 -1.619818 0.822713 S
0.500000 -1.620572 0.827022 S
