Cu4 Sb4 Pb4 S12                         
   1.00000000000000     
     7.8518836599046820    0.0000000000000000    0.0000000000000000
     0.0000000000000000    8.1940051929356681    0.0000000000000000
     0.0000000000000000    0.0000000000000000    8.8168493585878629
   Cu   Sb   Pb   S 
     4     4     4    12
Direct
  0.7435846819466032  0.7249549659779267  0.9106334793077587
  0.2564153180533968  0.7249549659779267  0.9106334793077587
  0.7564153180533968  0.2750450340220733  0.4106334793077588
  0.2435846819466032  0.2750450340220733  0.4106334793077588
  0.5000000000000000  0.0708478835760195  0.0421175003956306
 -0.0000000000000000  0.9291521164239804  0.5421175003956307
  0.5000000000000000  0.4902559560535865  0.6525144852596056
 -0.0000000000000000  0.5097440439464135  0.1525144852596057
  0.5000000000000000  0.9237252788998388  0.4902243703782180
 -0.0000000000000000  0.0762747211001612  0.9902243703782180
  0.5000000000000000  0.5552313409637797  0.1714953981603541
 -0.0000000000000000  0.4447686590362204  0.6714953981603540
  0.5000000000000000  0.7586017275799849  0.7715218955900162
 -0.0000000000000000  0.2413982724200152  0.2715218955900162
  0.5000000000000000  0.2295105491377859  0.2803828819189922
 -0.0000000000000000  0.7704894508622141  0.7803828819189922
  0.7359324782549932  0.8930119616095863  0.1229630356581843
  0.2640675217450067  0.8930119616095863  0.1229630356581843
  0.7640675217450068  0.1069880383904137  0.6229630356581843
  0.2359324782549933  0.1069880383904137  0.6229630356581843
  0.7682188044329655  0.4439224878827573  0.9749252191826414
  0.2317811955670345  0.4439224878827573  0.9749252191826414
  0.7317811955670345  0.5560775121172427  0.4749252191826414
  0.2682188044329655  0.5560775121172427  0.4749252191826414
