Cu16 Sb16 Pb16 S48
1.0
7.851884 -0.000000 0.000000
-0.000000 12.036551 -0.000000
0.000000 0.000000 28.729744
Cu Sb Pb S
16 16 16 48
direct
0.756415 0.401350 0.079560 Cu
0.243585 0.401350 0.079560 Cu
0.256415 -0.121864 0.090025 Cu
0.743585 -0.121864 0.090025 Cu
0.243585 -0.062085 0.288478 Cu
0.756415 -0.062085 0.288478 Cu
0.256415 -0.585298 0.298943 Cu
0.743585 -0.585298 0.298943 Cu
0.243585 -0.525519 0.497396 Cu
0.756415 -0.525519 0.497396 Cu
0.256415 -1.048733 0.507861 Cu
0.743585 -1.048733 0.507861 Cu
0.243585 -0.988954 0.706314 Cu
0.756415 -0.988954 0.706314 Cu
0.256415 -1.512167 0.716779 Cu
0.743585 -1.512167 0.716779 Cu
-0.000000 0.648615 0.084453 Sb
-0.000000 0.170501 0.124354 Sb
0.500000 -0.092134 0.192984 Sb
0.500000 0.504451 0.199210 Sb
-0.000000 0.185181 0.293371 Sb
-0.000000 -0.292933 0.333272 Sb
0.500000 -0.555568 0.401902 Sb
0.500000 0.041016 0.408128 Sb
-0.000000 -0.278254 0.502289 Sb
-0.000000 -0.756368 0.542190 Sb
0.500000 -1.019003 0.610820 Sb
0.500000 -0.422418 0.617046 Sb
-0.000000 -0.741688 0.711207 Sb
-0.000000 -1.219802 0.751108 Sb
0.500000 -1.482437 0.819738 Sb
0.500000 -0.885853 0.825964 Sb
0.000000 -0.001756 -0.000000 Pb
0.500000 0.659511 0.070985 Pb
0.500000 0.195830 0.136329 Pb
-0.000000 -0.123399 0.198521 Pb
-0.000000 -0.465190 0.208918 Pb
0.500000 0.196076 0.279903 Pb
0.500000 -0.267604 0.345247 Pb
-0.000000 -0.586833 0.407439 Pb
-0.000000 -0.928625 0.417836 Pb
0.500000 -0.267358 0.488821 Pb
0.500000 -0.731039 0.554165 Pb
-0.000000 -1.050268 0.616357 Pb
-0.000000 -1.392059 0.626754 Pb
0.500000 -0.730793 0.697739 Pb
0.500000 -1.194473 0.763083 Pb
-0.000000 -1.513702 0.825275 Pb
0.731781 0.497093 0.007416 S
0.268219 0.497093 0.007416 S
0.264068 0.842091 0.010555 S
0.735932 0.842091 0.010555 S
0.235932 0.209538 0.070311 S
0.764068 0.209538 0.070311 S
-0.000000 -0.030874 0.107724 S
0.500000 -0.031628 0.112058 S
-0.000000 0.460399 0.115653 S
0.500000 0.450135 0.116285 S
0.231781 -0.286601 0.135306 S
0.768219 -0.286601 0.135306 S
0.268219 0.033659 0.216334 S
0.731781 0.033659 0.216334 S
0.264068 0.378656 0.219473 S
0.735932 0.378656 0.219473 S
0.235932 -0.253897 0.279229 S
0.764068 -0.253897 0.279229 S
-0.000000 -0.494308 0.316642 S
0.500000 -0.495063 0.320976 S
-0.000000 -0.003035 0.324571 S
0.500000 -0.013299 0.325203 S
0.231781 -0.750035 0.344224 S
0.768219 -0.750035 0.344224 S
0.268219 -0.429776 0.425252 S
0.731781 -0.429776 0.425252 S
0.264068 -0.084778 0.428391 S
0.735932 -0.084778 0.428391 S
0.235932 -0.717331 0.488147 S
0.764068 -0.717331 0.488147 S
-0.000000 -0.957743 0.525560 S
0.500000 -0.958497 0.529894 S
-0.000000 -0.466470 0.533489 S
0.500000 -0.476734 0.534121 S
0.231781 -1.213470 0.553142 S
0.768219 -1.213470 0.553142 S
0.268219 -0.893210 0.634170 S
0.731781 -0.893210 0.634170 S
0.264068 -0.548213 0.637309 S
0.735932 -0.548213 0.637309 S
0.235932 -1.180766 0.697065 S
0.764068 -1.180766 0.697065 S
-0.000000 -1.421177 0.734478 S
0.500000 -1.421932 0.738812 S
-0.000000 -0.929904 0.742407 S
0.500000 -0.940168 0.743039 S
0.231781 -1.676904 0.762060 S
0.768219 -1.676904 0.762060 S
