mHfO2 Bulk                                
    1.000000000000000     
  5.115600    0.000000    0.000000
  0.000000    5.172200    0.000000
 -0.844714    0.000000    5.226984
   Hf   O 
   4   8
Cartesian
1.235862387         0.213094640         1.086167332
3.457380411         2.799194640         1.527324805
3.035023210         4.959105360         4.140816943
0.813505186         2.373005360         3.699659470
0.092993618         1.789581200         1.735358780
4.600249180         4.375681200         0.878133358
4.177891979         3.382618800         3.491625496
-0.329363583         0.796518800         4.348850917
1.869336971         3.868805600         2.550768327
2.823905827         1.282705600         0.062723811
2.401548626         1.303394400         2.676215949
1.446979770         3.889494400         5.164260464
